p cnf 511 1733
c p weight -203 1 0
c p weight 203 -1 0
c p weight 207 6.12323399573676603586882014729198302312846062338790031898128063403419218957424163818359375E-17 0
c p weight -207 1 0
c p weight 208 1 0
c p weight -208 1 0
c p weight -205 1 0
c p weight 205 -1 0
c p weight -209 1 0
c p weight 209 -1 0
c p weight -211 1 0
c p weight 211 -1 0
c p weight -214 1 0
c p weight 214 -1 0
c p weight -217 1 0
c p weight 217 -1 0
c p weight -220 1 0
c p weight 220 -1 0
c p weight -223 1 0
c p weight 223 -1 0
c p weight -226 1 0
c p weight 226 -1 0
c p weight -229 1 0
c p weight 229 -1 0
c p weight -232 1 0
c p weight 232 -1 0
c p weight -235 1 0
c p weight 235 -1 0
c p weight -238 1 0
c p weight 238 -1 0
c p weight -241 1 0
c p weight 241 -1 0
c p weight -244 1 0
c p weight 244 -1 0
c p weight -247 1 0
c p weight 247 -1 0
c p weight -250 1 0
c p weight 250 -1 0
c p weight -253 1 0
c p weight 253 -1 0
c p weight -256 1 0
c p weight 256 -1 0
c p weight -259 1 0
c p weight 259 -1 0
c p weight -262 1 0
c p weight 262 -1 0
c p weight -265 1 0
c p weight 265 -1 0
c p weight -268 1 0
c p weight 268 -1 0
c p weight -271 1 0
c p weight 271 -1 0
c p weight -274 1 0
c p weight 274 -1 0
c p weight -277 1 0
c p weight 277 -1 0
c p weight -280 1 0
c p weight 280 -1 0
c p weight -283 1 0
c p weight 283 -1 0
c p weight -286 1 0
c p weight 286 -1 0
c p weight -289 1 0
c p weight 289 -1 0
c p weight -292 1 0
c p weight 292 -1 0
c p weight -295 1 0
c p weight 295 -1 0
c p weight -298 1 0
c p weight 298 -1 0
c p weight -301 1 0
c p weight 301 -1 0
c p weight -304 1 0
c p weight 304 -1 0
c p weight -307 1 0
c p weight 307 -1 0
c p weight -310 1 0
c p weight 310 -1 0
c p weight -313 1 0
c p weight 313 -1 0
c p weight -316 1 0
c p weight 316 -1 0
c p weight -319 1 0
c p weight 319 -1 0
c p weight -322 1 0
c p weight 322 -1 0
c p weight -325 1 0
c p weight 325 -1 0
c p weight -328 1 0
c p weight 328 -1 0
c p weight -331 1 0
c p weight 331 -1 0
c p weight -334 1 0
c p weight 334 -1 0
c p weight -337 1 0
c p weight 337 -1 0
c p weight -340 1 0
c p weight 340 -1 0
c p weight -343 1 0
c p weight 343 -1 0
c p weight -346 1 0
c p weight 346 -1 0
c p weight -349 1 0
c p weight 349 -1 0
c p weight -352 1 0
c p weight 352 -1 0
c p weight -355 1 0
c p weight 355 -1 0
c p weight -358 1 0
c p weight 358 -1 0
c p weight -361 1 0
c p weight 361 -1 0
c p weight -364 1 0
c p weight 364 -1 0
c p weight -367 1 0
c p weight 367 -1 0
c p weight -370 1 0
c p weight 370 -1 0
c p weight -373 1 0
c p weight 373 -1 0
c p weight -376 1 0
c p weight 376 -1 0
c p weight -379 1 0
c p weight 379 -1 0
c p weight -382 1 0
c p weight 382 -1 0
c p weight -385 1 0
c p weight 385 -1 0
c p weight -388 1 0
c p weight 388 -1 0
c p weight -391 1 0
c p weight 391 -1 0
c p weight -394 1 0
c p weight 394 -1 0
c p weight -397 1 0
c p weight 397 -1 0
c p weight -400 1 0
c p weight 400 -1 0
c p weight -403 1 0
c p weight 403 -1 0
c p weight -406 1 0
c p weight 406 -1 0
c p weight -409 1 0
c p weight 409 -1 0
c p weight -412 1 0
c p weight 412 -1 0
c p weight -415 1 0
c p weight 415 -1 0
c p weight -418 1 0
c p weight 418 -1 0
c p weight -421 1 0
c p weight 421 -1 0
c p weight -424 1 0
c p weight 424 -1 0
c p weight -427 1 0
c p weight 427 -1 0
c p weight -430 1 0
c p weight 430 -1 0
c p weight -433 1 0
c p weight 433 -1 0
c p weight -436 1 0
c p weight 436 -1 0
c p weight -439 1 0
c p weight 439 -1 0
c p weight -442 1 0
c p weight 442 -1 0
c p weight -445 1 0
c p weight 445 -1 0
c p weight -448 1 0
c p weight 448 -1 0
c p weight -451 1 0
c p weight 451 -1 0
c p weight -454 1 0
c p weight 454 -1 0
c p weight -457 1 0
c p weight 457 -1 0
c p weight -460 1 0
c p weight 460 -1 0
c p weight -463 1 0
c p weight 463 -1 0
c p weight -466 1 0
c p weight 466 -1 0
c p weight -469 1 0
c p weight 469 -1 0
c p weight -472 1 0
c p weight 472 -1 0
c p weight -475 1 0
c p weight 475 -1 0
c p weight -478 1 0
c p weight 478 -1 0
c p weight -481 1 0
c p weight 481 -1 0
c p weight -484 1 0
c p weight 484 -1 0
c p weight -487 1 0
c p weight 487 -1 0
c p weight -490 1 0
c p weight 490 -1 0
c p weight -493 1 0
c p weight 493 -1 0
c p weight -496 1 0
c p weight 496 -1 0
c p weight -499 1 0
c p weight 499 -1 0
c p weight -502 1 0
c p weight 502 -1 0
c p weight -505 1 0
c p weight 505 -1 0
c p weight -508 1 0
c p weight 508 -1 0
c p weight 511 0.5 0
c p weight -511 1 0
511 0
-201 0
-199 0
-197 0
-195 0
-193 0
-191 0
-189 0
-187 0
-185 0
-183 0
-181 0
-179 0
-177 0
-175 0
-173 0
-171 0
-169 0
-167 0
-165 0
-163 0
-161 0
-159 0
-157 0
-155 0
-153 0
-151 0
-149 0
-147 0
-145 0
-143 0
-141 0
-139 0
-137 0
-135 0
-133 0
-131 0
-129 0
-127 0
-125 0
-123 0
-121 0
-119 0
-117 0
-115 0
-113 0
-111 0
-109 0
-107 0
-105 0
-103 0
-101 0
-99 0
-97 0
-95 0
-93 0
-91 0
-89 0
-87 0
-85 0
-83 0
-81 0
-79 0
-77 0
-75 0
-73 0
-71 0
-69 0
-67 0
-65 0
-63 0
-61 0
-59 0
-57 0
-55 0
-53 0
-51 0
-49 0
-47 0
-45 0
-43 0
-41 0
-39 0
-37 0
-35 0
-33 0
-31 0
-29 0
-27 0
-25 0
-23 0
-21 0
-19 0
-17 0
-15 0
-13 0
-11 0
-9 0
-7 0
-5 0
-3 0
-1 0
-203 201 0
-203 202 0
203 -201 -202 0
204 201 -202 0
204 -201 202 0
-204 201 202 0
-204 -201 -202 0
-205 206 0
-205 204 0
-205 -201 0
205 -206 201 -204 0
206 -201 204 0
-206 201 204 0
-207 204 0
206 -207 -201 0
-206 -207 201 0
206 207 201 -204 0
-206 207 -201 -204 0
-208 204 0
206 -208 201 0
-206 -208 -201 0
206 208 -201 -204 0
-206 208 201 -204 0
-209 206 0
-209 204 0
209 -206 -204 0
210 206 -204 0
210 -206 204 0
-210 206 204 0
-210 -206 -204 0
-211 206 0
-211 200 0
-211 199 -210 0
-211 -199 210 0
211 -206 199 210 -200 0
211 -206 -199 -210 -200 0
213 206 -199 0
213 -206 199 0
-213 206 199 0
-213 -206 -199 0
212 210 -200 0
212 -210 200 0
-212 210 200 0
-212 -210 -200 0
-214 213 0
-214 198 0
-214 197 -200 0
-214 -197 200 0
214 -213 197 200 -198 0
214 -213 -197 -200 -198 0
216 213 -197 0
216 -213 197 0
-216 213 197 0
-216 -213 -197 0
215 200 -198 0
215 -200 198 0
-215 200 198 0
-215 -200 -198 0
-217 216 0
-217 196 0
-217 195 -198 0
-217 -195 198 0
217 -216 195 198 -196 0
217 -216 -195 -198 -196 0
219 216 -195 0
219 -216 195 0
-219 216 195 0
-219 -216 -195 0
218 198 -196 0
218 -198 196 0
-218 198 196 0
-218 -198 -196 0
-220 219 0
-220 194 0
-220 193 -196 0
-220 -193 196 0
220 -219 193 196 -194 0
220 -219 -193 -196 -194 0
222 219 -193 0
222 -219 193 0
-222 219 193 0
-222 -219 -193 0
221 196 -194 0
221 -196 194 0
-221 196 194 0
-221 -196 -194 0
-223 222 0
-223 192 0
-223 191 -194 0
-223 -191 194 0
223 -222 191 194 -192 0
223 -222 -191 -194 -192 0
225 222 -191 0
225 -222 191 0
-225 222 191 0
-225 -222 -191 0
224 194 -192 0
224 -194 192 0
-224 194 192 0
-224 -194 -192 0
-226 225 0
-226 190 0
-226 189 -192 0
-226 -189 192 0
226 -225 189 192 -190 0
226 -225 -189 -192 -190 0
228 225 -189 0
228 -225 189 0
-228 225 189 0
-228 -225 -189 0
227 192 -190 0
227 -192 190 0
-227 192 190 0
-227 -192 -190 0
-229 228 0
-229 188 0
-229 187 -190 0
-229 -187 190 0
229 -228 187 190 -188 0
229 -228 -187 -190 -188 0
231 228 -187 0
231 -228 187 0
-231 228 187 0
-231 -228 -187 0
230 190 -188 0
230 -190 188 0
-230 190 188 0
-230 -190 -188 0
-232 231 0
-232 186 0
-232 185 -188 0
-232 -185 188 0
232 -231 185 188 -186 0
232 -231 -185 -188 -186 0
234 231 -185 0
234 -231 185 0
-234 231 185 0
-234 -231 -185 0
233 188 -186 0
233 -188 186 0
-233 188 186 0
-233 -188 -186 0
-235 234 0
-235 184 0
-235 183 -186 0
-235 -183 186 0
235 -234 183 186 -184 0
235 -234 -183 -186 -184 0
237 234 -183 0
237 -234 183 0
-237 234 183 0
-237 -234 -183 0
236 186 -184 0
236 -186 184 0
-236 186 184 0
-236 -186 -184 0
-238 237 0
-238 182 0
-238 181 -184 0
-238 -181 184 0
238 -237 181 184 -182 0
238 -237 -181 -184 -182 0
240 237 -181 0
240 -237 181 0
-240 237 181 0
-240 -237 -181 0
239 184 -182 0
239 -184 182 0
-239 184 182 0
-239 -184 -182 0
-241 240 0
-241 180 0
-241 179 -182 0
-241 -179 182 0
241 -240 179 182 -180 0
241 -240 -179 -182 -180 0
243 240 -179 0
243 -240 179 0
-243 240 179 0
-243 -240 -179 0
242 182 -180 0
242 -182 180 0
-242 182 180 0
-242 -182 -180 0
-244 243 0
-244 178 0
-244 177 -180 0
-244 -177 180 0
244 -243 177 180 -178 0
244 -243 -177 -180 -178 0
246 243 -177 0
246 -243 177 0
-246 243 177 0
-246 -243 -177 0
245 180 -178 0
245 -180 178 0
-245 180 178 0
-245 -180 -178 0
-247 246 0
-247 176 0
-247 175 -178 0
-247 -175 178 0
247 -246 175 178 -176 0
247 -246 -175 -178 -176 0
249 246 -175 0
249 -246 175 0
-249 246 175 0
-249 -246 -175 0
248 178 -176 0
248 -178 176 0
-248 178 176 0
-248 -178 -176 0
-250 249 0
-250 174 0
-250 173 -176 0
-250 -173 176 0
250 -249 173 176 -174 0
250 -249 -173 -176 -174 0
252 249 -173 0
252 -249 173 0
-252 249 173 0
-252 -249 -173 0
251 176 -174 0
251 -176 174 0
-251 176 174 0
-251 -176 -174 0
-253 252 0
-253 172 0
-253 171 -174 0
-253 -171 174 0
253 -252 171 174 -172 0
253 -252 -171 -174 -172 0
255 252 -171 0
255 -252 171 0
-255 252 171 0
-255 -252 -171 0
254 174 -172 0
254 -174 172 0
-254 174 172 0
-254 -174 -172 0
-256 255 0
-256 170 0
-256 169 -172 0
-256 -169 172 0
256 -255 169 172 -170 0
256 -255 -169 -172 -170 0
258 255 -169 0
258 -255 169 0
-258 255 169 0
-258 -255 -169 0
257 172 -170 0
257 -172 170 0
-257 172 170 0
-257 -172 -170 0
-259 258 0
-259 168 0
-259 167 -170 0
-259 -167 170 0
259 -258 167 170 -168 0
259 -258 -167 -170 -168 0
261 258 -167 0
261 -258 167 0
-261 258 167 0
-261 -258 -167 0
260 170 -168 0
260 -170 168 0
-260 170 168 0
-260 -170 -168 0
-262 261 0
-262 166 0
-262 165 -168 0
-262 -165 168 0
262 -261 165 168 -166 0
262 -261 -165 -168 -166 0
264 261 -165 0
264 -261 165 0
-264 261 165 0
-264 -261 -165 0
263 168 -166 0
263 -168 166 0
-263 168 166 0
-263 -168 -166 0
-265 264 0
-265 164 0
-265 163 -166 0
-265 -163 166 0
265 -264 163 166 -164 0
265 -264 -163 -166 -164 0
267 264 -163 0
267 -264 163 0
-267 264 163 0
-267 -264 -163 0
266 166 -164 0
266 -166 164 0
-266 166 164 0
-266 -166 -164 0
-268 267 0
-268 162 0
-268 161 -164 0
-268 -161 164 0
268 -267 161 164 -162 0
268 -267 -161 -164 -162 0
270 267 -161 0
270 -267 161 0
-270 267 161 0
-270 -267 -161 0
269 164 -162 0
269 -164 162 0
-269 164 162 0
-269 -164 -162 0
-271 270 0
-271 160 0
-271 159 -162 0
-271 -159 162 0
271 -270 159 162 -160 0
271 -270 -159 -162 -160 0
273 270 -159 0
273 -270 159 0
-273 270 159 0
-273 -270 -159 0
272 162 -160 0
272 -162 160 0
-272 162 160 0
-272 -162 -160 0
-274 273 0
-274 158 0
-274 157 -160 0
-274 -157 160 0
274 -273 157 160 -158 0
274 -273 -157 -160 -158 0
276 273 -157 0
276 -273 157 0
-276 273 157 0
-276 -273 -157 0
275 160 -158 0
275 -160 158 0
-275 160 158 0
-275 -160 -158 0
-277 276 0
-277 156 0
-277 155 -158 0
-277 -155 158 0
277 -276 155 158 -156 0
277 -276 -155 -158 -156 0
279 276 -155 0
279 -276 155 0
-279 276 155 0
-279 -276 -155 0
278 158 -156 0
278 -158 156 0
-278 158 156 0
-278 -158 -156 0
-280 279 0
-280 154 0
-280 153 -156 0
-280 -153 156 0
280 -279 153 156 -154 0
280 -279 -153 -156 -154 0
282 279 -153 0
282 -279 153 0
-282 279 153 0
-282 -279 -153 0
281 156 -154 0
281 -156 154 0
-281 156 154 0
-281 -156 -154 0
-283 282 0
-283 152 0
-283 151 -154 0
-283 -151 154 0
283 -282 151 154 -152 0
283 -282 -151 -154 -152 0
285 282 -151 0
285 -282 151 0
-285 282 151 0
-285 -282 -151 0
284 154 -152 0
284 -154 152 0
-284 154 152 0
-284 -154 -152 0
-286 285 0
-286 150 0
-286 149 -152 0
-286 -149 152 0
286 -285 149 152 -150 0
286 -285 -149 -152 -150 0
288 285 -149 0
288 -285 149 0
-288 285 149 0
-288 -285 -149 0
287 152 -150 0
287 -152 150 0
-287 152 150 0
-287 -152 -150 0
-289 288 0
-289 148 0
-289 147 -150 0
-289 -147 150 0
289 -288 147 150 -148 0
289 -288 -147 -150 -148 0
291 288 -147 0
291 -288 147 0
-291 288 147 0
-291 -288 -147 0
290 150 -148 0
290 -150 148 0
-290 150 148 0
-290 -150 -148 0
-292 291 0
-292 146 0
-292 145 -148 0
-292 -145 148 0
292 -291 145 148 -146 0
292 -291 -145 -148 -146 0
294 291 -145 0
294 -291 145 0
-294 291 145 0
-294 -291 -145 0
293 148 -146 0
293 -148 146 0
-293 148 146 0
-293 -148 -146 0
-295 294 0
-295 144 0
-295 143 -146 0
-295 -143 146 0
295 -294 143 146 -144 0
295 -294 -143 -146 -144 0
297 294 -143 0
297 -294 143 0
-297 294 143 0
-297 -294 -143 0
296 146 -144 0
296 -146 144 0
-296 146 144 0
-296 -146 -144 0
-298 297 0
-298 142 0
-298 141 -144 0
-298 -141 144 0
298 -297 141 144 -142 0
298 -297 -141 -144 -142 0
300 297 -141 0
300 -297 141 0
-300 297 141 0
-300 -297 -141 0
299 144 -142 0
299 -144 142 0
-299 144 142 0
-299 -144 -142 0
-301 300 0
-301 140 0
-301 139 -142 0
-301 -139 142 0
301 -300 139 142 -140 0
301 -300 -139 -142 -140 0
303 300 -139 0
303 -300 139 0
-303 300 139 0
-303 -300 -139 0
302 142 -140 0
302 -142 140 0
-302 142 140 0
-302 -142 -140 0
-304 303 0
-304 138 0
-304 137 -140 0
-304 -137 140 0
304 -303 137 140 -138 0
304 -303 -137 -140 -138 0
306 303 -137 0
306 -303 137 0
-306 303 137 0
-306 -303 -137 0
305 140 -138 0
305 -140 138 0
-305 140 138 0
-305 -140 -138 0
-307 306 0
-307 136 0
-307 135 -138 0
-307 -135 138 0
307 -306 135 138 -136 0
307 -306 -135 -138 -136 0
309 306 -135 0
309 -306 135 0
-309 306 135 0
-309 -306 -135 0
308 138 -136 0
308 -138 136 0
-308 138 136 0
-308 -138 -136 0
-310 309 0
-310 134 0
-310 133 -136 0
-310 -133 136 0
310 -309 133 136 -134 0
310 -309 -133 -136 -134 0
312 309 -133 0
312 -309 133 0
-312 309 133 0
-312 -309 -133 0
311 136 -134 0
311 -136 134 0
-311 136 134 0
-311 -136 -134 0
-313 312 0
-313 132 0
-313 131 -134 0
-313 -131 134 0
313 -312 131 134 -132 0
313 -312 -131 -134 -132 0
315 312 -131 0
315 -312 131 0
-315 312 131 0
-315 -312 -131 0
314 134 -132 0
314 -134 132 0
-314 134 132 0
-314 -134 -132 0
-316 315 0
-316 130 0
-316 129 -132 0
-316 -129 132 0
316 -315 129 132 -130 0
316 -315 -129 -132 -130 0
318 315 -129 0
318 -315 129 0
-318 315 129 0
-318 -315 -129 0
317 132 -130 0
317 -132 130 0
-317 132 130 0
-317 -132 -130 0
-319 318 0
-319 128 0
-319 127 -130 0
-319 -127 130 0
319 -318 127 130 -128 0
319 -318 -127 -130 -128 0
321 318 -127 0
321 -318 127 0
-321 318 127 0
-321 -318 -127 0
320 130 -128 0
320 -130 128 0
-320 130 128 0
-320 -130 -128 0
-322 321 0
-322 126 0
-322 125 -128 0
-322 -125 128 0
322 -321 125 128 -126 0
322 -321 -125 -128 -126 0
324 321 -125 0
324 -321 125 0
-324 321 125 0
-324 -321 -125 0
323 128 -126 0
323 -128 126 0
-323 128 126 0
-323 -128 -126 0
-325 324 0
-325 124 0
-325 123 -126 0
-325 -123 126 0
325 -324 123 126 -124 0
325 -324 -123 -126 -124 0
327 324 -123 0
327 -324 123 0
-327 324 123 0
-327 -324 -123 0
326 126 -124 0
326 -126 124 0
-326 126 124 0
-326 -126 -124 0
-328 327 0
-328 122 0
-328 121 -124 0
-328 -121 124 0
328 -327 121 124 -122 0
328 -327 -121 -124 -122 0
330 327 -121 0
330 -327 121 0
-330 327 121 0
-330 -327 -121 0
329 124 -122 0
329 -124 122 0
-329 124 122 0
-329 -124 -122 0
-331 330 0
-331 120 0
-331 119 -122 0
-331 -119 122 0
331 -330 119 122 -120 0
331 -330 -119 -122 -120 0
333 330 -119 0
333 -330 119 0
-333 330 119 0
-333 -330 -119 0
332 122 -120 0
332 -122 120 0
-332 122 120 0
-332 -122 -120 0
-334 333 0
-334 118 0
-334 117 -120 0
-334 -117 120 0
334 -333 117 120 -118 0
334 -333 -117 -120 -118 0
336 333 -117 0
336 -333 117 0
-336 333 117 0
-336 -333 -117 0
335 120 -118 0
335 -120 118 0
-335 120 118 0
-335 -120 -118 0
-337 336 0
-337 116 0
-337 115 -118 0
-337 -115 118 0
337 -336 115 118 -116 0
337 -336 -115 -118 -116 0
339 336 -115 0
339 -336 115 0
-339 336 115 0
-339 -336 -115 0
338 118 -116 0
338 -118 116 0
-338 118 116 0
-338 -118 -116 0
-340 339 0
-340 114 0
-340 113 -116 0
-340 -113 116 0
340 -339 113 116 -114 0
340 -339 -113 -116 -114 0
342 339 -113 0
342 -339 113 0
-342 339 113 0
-342 -339 -113 0
341 116 -114 0
341 -116 114 0
-341 116 114 0
-341 -116 -114 0
-343 342 0
-343 112 0
-343 111 -114 0
-343 -111 114 0
343 -342 111 114 -112 0
343 -342 -111 -114 -112 0
345 342 -111 0
345 -342 111 0
-345 342 111 0
-345 -342 -111 0
344 114 -112 0
344 -114 112 0
-344 114 112 0
-344 -114 -112 0
-346 345 0
-346 110 0
-346 109 -112 0
-346 -109 112 0
346 -345 109 112 -110 0
346 -345 -109 -112 -110 0
348 345 -109 0
348 -345 109 0
-348 345 109 0
-348 -345 -109 0
347 112 -110 0
347 -112 110 0
-347 112 110 0
-347 -112 -110 0
-349 348 0
-349 108 0
-349 107 -110 0
-349 -107 110 0
349 -348 107 110 -108 0
349 -348 -107 -110 -108 0
351 348 -107 0
351 -348 107 0
-351 348 107 0
-351 -348 -107 0
350 110 -108 0
350 -110 108 0
-350 110 108 0
-350 -110 -108 0
-352 351 0
-352 106 0
-352 105 -108 0
-352 -105 108 0
352 -351 105 108 -106 0
352 -351 -105 -108 -106 0
354 351 -105 0
354 -351 105 0
-354 351 105 0
-354 -351 -105 0
353 108 -106 0
353 -108 106 0
-353 108 106 0
-353 -108 -106 0
-355 354 0
-355 104 0
-355 103 -106 0
-355 -103 106 0
355 -354 103 106 -104 0
355 -354 -103 -106 -104 0
357 354 -103 0
357 -354 103 0
-357 354 103 0
-357 -354 -103 0
356 106 -104 0
356 -106 104 0
-356 106 104 0
-356 -106 -104 0
-358 357 0
-358 102 0
-358 101 -104 0
-358 -101 104 0
358 -357 101 104 -102 0
358 -357 -101 -104 -102 0
360 357 -101 0
360 -357 101 0
-360 357 101 0
-360 -357 -101 0
359 104 -102 0
359 -104 102 0
-359 104 102 0
-359 -104 -102 0
-361 360 0
-361 100 0
-361 99 -102 0
-361 -99 102 0
361 -360 99 102 -100 0
361 -360 -99 -102 -100 0
363 360 -99 0
363 -360 99 0
-363 360 99 0
-363 -360 -99 0
362 102 -100 0
362 -102 100 0
-362 102 100 0
-362 -102 -100 0
-364 363 0
-364 98 0
-364 97 -100 0
-364 -97 100 0
364 -363 97 100 -98 0
364 -363 -97 -100 -98 0
366 363 -97 0
366 -363 97 0
-366 363 97 0
-366 -363 -97 0
365 100 -98 0
365 -100 98 0
-365 100 98 0
-365 -100 -98 0
-367 366 0
-367 96 0
-367 95 -98 0
-367 -95 98 0
367 -366 95 98 -96 0
367 -366 -95 -98 -96 0
369 366 -95 0
369 -366 95 0
-369 366 95 0
-369 -366 -95 0
368 98 -96 0
368 -98 96 0
-368 98 96 0
-368 -98 -96 0
-370 369 0
-370 94 0
-370 93 -96 0
-370 -93 96 0
370 -369 93 96 -94 0
370 -369 -93 -96 -94 0
372 369 -93 0
372 -369 93 0
-372 369 93 0
-372 -369 -93 0
371 96 -94 0
371 -96 94 0
-371 96 94 0
-371 -96 -94 0
-373 372 0
-373 92 0
-373 91 -94 0
-373 -91 94 0
373 -372 91 94 -92 0
373 -372 -91 -94 -92 0
375 372 -91 0
375 -372 91 0
-375 372 91 0
-375 -372 -91 0
374 94 -92 0
374 -94 92 0
-374 94 92 0
-374 -94 -92 0
-376 375 0
-376 90 0
-376 89 -92 0
-376 -89 92 0
376 -375 89 92 -90 0
376 -375 -89 -92 -90 0
378 375 -89 0
378 -375 89 0
-378 375 89 0
-378 -375 -89 0
377 92 -90 0
377 -92 90 0
-377 92 90 0
-377 -92 -90 0
-379 378 0
-379 88 0
-379 87 -90 0
-379 -87 90 0
379 -378 87 90 -88 0
379 -378 -87 -90 -88 0
381 378 -87 0
381 -378 87 0
-381 378 87 0
-381 -378 -87 0
380 90 -88 0
380 -90 88 0
-380 90 88 0
-380 -90 -88 0
-382 381 0
-382 86 0
-382 85 -88 0
-382 -85 88 0
382 -381 85 88 -86 0
382 -381 -85 -88 -86 0
384 381 -85 0
384 -381 85 0
-384 381 85 0
-384 -381 -85 0
383 88 -86 0
383 -88 86 0
-383 88 86 0
-383 -88 -86 0
-385 384 0
-385 84 0
-385 83 -86 0
-385 -83 86 0
385 -384 83 86 -84 0
385 -384 -83 -86 -84 0
387 384 -83 0
387 -384 83 0
-387 384 83 0
-387 -384 -83 0
386 86 -84 0
386 -86 84 0
-386 86 84 0
-386 -86 -84 0
-388 387 0
-388 82 0
-388 81 -84 0
-388 -81 84 0
388 -387 81 84 -82 0
388 -387 -81 -84 -82 0
390 387 -81 0
390 -387 81 0
-390 387 81 0
-390 -387 -81 0
389 84 -82 0
389 -84 82 0
-389 84 82 0
-389 -84 -82 0
-391 390 0
-391 80 0
-391 79 -82 0
-391 -79 82 0
391 -390 79 82 -80 0
391 -390 -79 -82 -80 0
393 390 -79 0
393 -390 79 0
-393 390 79 0
-393 -390 -79 0
392 82 -80 0
392 -82 80 0
-392 82 80 0
-392 -82 -80 0
-394 393 0
-394 78 0
-394 77 -80 0
-394 -77 80 0
394 -393 77 80 -78 0
394 -393 -77 -80 -78 0
396 393 -77 0
396 -393 77 0
-396 393 77 0
-396 -393 -77 0
395 80 -78 0
395 -80 78 0
-395 80 78 0
-395 -80 -78 0
-397 396 0
-397 76 0
-397 75 -78 0
-397 -75 78 0
397 -396 75 78 -76 0
397 -396 -75 -78 -76 0
399 396 -75 0
399 -396 75 0
-399 396 75 0
-399 -396 -75 0
398 78 -76 0
398 -78 76 0
-398 78 76 0
-398 -78 -76 0
-400 399 0
-400 74 0
-400 73 -76 0
-400 -73 76 0
400 -399 73 76 -74 0
400 -399 -73 -76 -74 0
402 399 -73 0
402 -399 73 0
-402 399 73 0
-402 -399 -73 0
401 76 -74 0
401 -76 74 0
-401 76 74 0
-401 -76 -74 0
-403 402 0
-403 72 0
-403 71 -74 0
-403 -71 74 0
403 -402 71 74 -72 0
403 -402 -71 -74 -72 0
405 402 -71 0
405 -402 71 0
-405 402 71 0
-405 -402 -71 0
404 74 -72 0
404 -74 72 0
-404 74 72 0
-404 -74 -72 0
-406 405 0
-406 70 0
-406 69 -72 0
-406 -69 72 0
406 -405 69 72 -70 0
406 -405 -69 -72 -70 0
408 405 -69 0
408 -405 69 0
-408 405 69 0
-408 -405 -69 0
407 72 -70 0
407 -72 70 0
-407 72 70 0
-407 -72 -70 0
-409 408 0
-409 68 0
-409 67 -70 0
-409 -67 70 0
409 -408 67 70 -68 0
409 -408 -67 -70 -68 0
411 408 -67 0
411 -408 67 0
-411 408 67 0
-411 -408 -67 0
410 70 -68 0
410 -70 68 0
-410 70 68 0
-410 -70 -68 0
-412 411 0
-412 66 0
-412 65 -68 0
-412 -65 68 0
412 -411 65 68 -66 0
412 -411 -65 -68 -66 0
414 411 -65 0
414 -411 65 0
-414 411 65 0
-414 -411 -65 0
413 68 -66 0
413 -68 66 0
-413 68 66 0
-413 -68 -66 0
-415 414 0
-415 64 0
-415 63 -66 0
-415 -63 66 0
415 -414 63 66 -64 0
415 -414 -63 -66 -64 0
417 414 -63 0
417 -414 63 0
-417 414 63 0
-417 -414 -63 0
416 66 -64 0
416 -66 64 0
-416 66 64 0
-416 -66 -64 0
-418 417 0
-418 62 0
-418 61 -64 0
-418 -61 64 0
418 -417 61 64 -62 0
418 -417 -61 -64 -62 0
420 417 -61 0
420 -417 61 0
-420 417 61 0
-420 -417 -61 0
419 64 -62 0
419 -64 62 0
-419 64 62 0
-419 -64 -62 0
-421 420 0
-421 60 0
-421 59 -62 0
-421 -59 62 0
421 -420 59 62 -60 0
421 -420 -59 -62 -60 0
423 420 -59 0
423 -420 59 0
-423 420 59 0
-423 -420 -59 0
422 62 -60 0
422 -62 60 0
-422 62 60 0
-422 -62 -60 0
-424 423 0
-424 58 0
-424 57 -60 0
-424 -57 60 0
424 -423 57 60 -58 0
424 -423 -57 -60 -58 0
426 423 -57 0
426 -423 57 0
-426 423 57 0
-426 -423 -57 0
425 60 -58 0
425 -60 58 0
-425 60 58 0
-425 -60 -58 0
-427 426 0
-427 56 0
-427 55 -58 0
-427 -55 58 0
427 -426 55 58 -56 0
427 -426 -55 -58 -56 0
429 426 -55 0
429 -426 55 0
-429 426 55 0
-429 -426 -55 0
428 58 -56 0
428 -58 56 0
-428 58 56 0
-428 -58 -56 0
-430 429 0
-430 54 0
-430 53 -56 0
-430 -53 56 0
430 -429 53 56 -54 0
430 -429 -53 -56 -54 0
432 429 -53 0
432 -429 53 0
-432 429 53 0
-432 -429 -53 0
431 56 -54 0
431 -56 54 0
-431 56 54 0
-431 -56 -54 0
-433 432 0
-433 52 0
-433 51 -54 0
-433 -51 54 0
433 -432 51 54 -52 0
433 -432 -51 -54 -52 0
435 432 -51 0
435 -432 51 0
-435 432 51 0
-435 -432 -51 0
434 54 -52 0
434 -54 52 0
-434 54 52 0
-434 -54 -52 0
-436 435 0
-436 50 0
-436 49 -52 0
-436 -49 52 0
436 -435 49 52 -50 0
436 -435 -49 -52 -50 0
438 435 -49 0
438 -435 49 0
-438 435 49 0
-438 -435 -49 0
437 52 -50 0
437 -52 50 0
-437 52 50 0
-437 -52 -50 0
-439 438 0
-439 48 0
-439 47 -50 0
-439 -47 50 0
439 -438 47 50 -48 0
439 -438 -47 -50 -48 0
441 438 -47 0
441 -438 47 0
-441 438 47 0
-441 -438 -47 0
440 50 -48 0
440 -50 48 0
-440 50 48 0
-440 -50 -48 0
-442 441 0
-442 46 0
-442 45 -48 0
-442 -45 48 0
442 -441 45 48 -46 0
442 -441 -45 -48 -46 0
444 441 -45 0
444 -441 45 0
-444 441 45 0
-444 -441 -45 0
443 48 -46 0
443 -48 46 0
-443 48 46 0
-443 -48 -46 0
-445 444 0
-445 44 0
-445 43 -46 0
-445 -43 46 0
445 -444 43 46 -44 0
445 -444 -43 -46 -44 0
447 444 -43 0
447 -444 43 0
-447 444 43 0
-447 -444 -43 0
446 46 -44 0
446 -46 44 0
-446 46 44 0
-446 -46 -44 0
-448 447 0
-448 42 0
-448 41 -44 0
-448 -41 44 0
448 -447 41 44 -42 0
448 -447 -41 -44 -42 0
450 447 -41 0
450 -447 41 0
-450 447 41 0
-450 -447 -41 0
449 44 -42 0
449 -44 42 0
-449 44 42 0
-449 -44 -42 0
-451 450 0
-451 40 0
-451 39 -42 0
-451 -39 42 0
451 -450 39 42 -40 0
451 -450 -39 -42 -40 0
453 450 -39 0
453 -450 39 0
-453 450 39 0
-453 -450 -39 0
452 42 -40 0
452 -42 40 0
-452 42 40 0
-452 -42 -40 0
-454 453 0
-454 38 0
-454 37 -40 0
-454 -37 40 0
454 -453 37 40 -38 0
454 -453 -37 -40 -38 0
456 453 -37 0
456 -453 37 0
-456 453 37 0
-456 -453 -37 0
455 40 -38 0
455 -40 38 0
-455 40 38 0
-455 -40 -38 0
-457 456 0
-457 36 0
-457 35 -38 0
-457 -35 38 0
457 -456 35 38 -36 0
457 -456 -35 -38 -36 0
459 456 -35 0
459 -456 35 0
-459 456 35 0
-459 -456 -35 0
458 38 -36 0
458 -38 36 0
-458 38 36 0
-458 -38 -36 0
-460 459 0
-460 34 0
-460 33 -36 0
-460 -33 36 0
460 -459 33 36 -34 0
460 -459 -33 -36 -34 0
462 459 -33 0
462 -459 33 0
-462 459 33 0
-462 -459 -33 0
461 36 -34 0
461 -36 34 0
-461 36 34 0
-461 -36 -34 0
-463 462 0
-463 32 0
-463 31 -34 0
-463 -31 34 0
463 -462 31 34 -32 0
463 -462 -31 -34 -32 0
465 462 -31 0
465 -462 31 0
-465 462 31 0
-465 -462 -31 0
464 34 -32 0
464 -34 32 0
-464 34 32 0
-464 -34 -32 0
-466 465 0
-466 30 0
-466 29 -32 0
-466 -29 32 0
466 -465 29 32 -30 0
466 -465 -29 -32 -30 0
468 465 -29 0
468 -465 29 0
-468 465 29 0
-468 -465 -29 0
467 32 -30 0
467 -32 30 0
-467 32 30 0
-467 -32 -30 0
-469 468 0
-469 28 0
-469 27 -30 0
-469 -27 30 0
469 -468 27 30 -28 0
469 -468 -27 -30 -28 0
471 468 -27 0
471 -468 27 0
-471 468 27 0
-471 -468 -27 0
470 30 -28 0
470 -30 28 0
-470 30 28 0
-470 -30 -28 0
-472 471 0
-472 26 0
-472 25 -28 0
-472 -25 28 0
472 -471 25 28 -26 0
472 -471 -25 -28 -26 0
474 471 -25 0
474 -471 25 0
-474 471 25 0
-474 -471 -25 0
473 28 -26 0
473 -28 26 0
-473 28 26 0
-473 -28 -26 0
-475 474 0
-475 24 0
-475 23 -26 0
-475 -23 26 0
475 -474 23 26 -24 0
475 -474 -23 -26 -24 0
477 474 -23 0
477 -474 23 0
-477 474 23 0
-477 -474 -23 0
476 26 -24 0
476 -26 24 0
-476 26 24 0
-476 -26 -24 0
-478 477 0
-478 22 0
-478 21 -24 0
-478 -21 24 0
478 -477 21 24 -22 0
478 -477 -21 -24 -22 0
480 477 -21 0
480 -477 21 0
-480 477 21 0
-480 -477 -21 0
479 24 -22 0
479 -24 22 0
-479 24 22 0
-479 -24 -22 0
-481 480 0
-481 20 0
-481 19 -22 0
-481 -19 22 0
481 -480 19 22 -20 0
481 -480 -19 -22 -20 0
483 480 -19 0
483 -480 19 0
-483 480 19 0
-483 -480 -19 0
482 22 -20 0
482 -22 20 0
-482 22 20 0
-482 -22 -20 0
-484 483 0
-484 18 0
-484 17 -20 0
-484 -17 20 0
484 -483 17 20 -18 0
484 -483 -17 -20 -18 0
486 483 -17 0
486 -483 17 0
-486 483 17 0
-486 -483 -17 0
485 20 -18 0
485 -20 18 0
-485 20 18 0
-485 -20 -18 0
-487 486 0
-487 16 0
-487 15 -18 0
-487 -15 18 0
487 -486 15 18 -16 0
487 -486 -15 -18 -16 0
489 486 -15 0
489 -486 15 0
-489 486 15 0
-489 -486 -15 0
488 18 -16 0
488 -18 16 0
-488 18 16 0
-488 -18 -16 0
-490 489 0
-490 14 0
-490 13 -16 0
-490 -13 16 0
490 -489 13 16 -14 0
490 -489 -13 -16 -14 0
492 489 -13 0
492 -489 13 0
-492 489 13 0
-492 -489 -13 0
491 16 -14 0
491 -16 14 0
-491 16 14 0
-491 -16 -14 0
-493 492 0
-493 12 0
-493 11 -14 0
-493 -11 14 0
493 -492 11 14 -12 0
493 -492 -11 -14 -12 0
495 492 -11 0
495 -492 11 0
-495 492 11 0
-495 -492 -11 0
494 14 -12 0
494 -14 12 0
-494 14 12 0
-494 -14 -12 0
-496 495 0
-496 10 0
-496 9 -12 0
-496 -9 12 0
496 -495 9 12 -10 0
496 -495 -9 -12 -10 0
498 495 -9 0
498 -495 9 0
-498 495 9 0
-498 -495 -9 0
497 12 -10 0
497 -12 10 0
-497 12 10 0
-497 -12 -10 0
-499 498 0
-499 8 0
-499 7 -10 0
-499 -7 10 0
499 -498 7 10 -8 0
499 -498 -7 -10 -8 0
501 498 -7 0
501 -498 7 0
-501 498 7 0
-501 -498 -7 0
500 10 -8 0
500 -10 8 0
-500 10 8 0
-500 -10 -8 0
-502 501 0
-502 6 0
-502 5 -8 0
-502 -5 8 0
502 -501 5 8 -6 0
502 -501 -5 -8 -6 0
504 501 -5 0
504 -501 5 0
-504 501 5 0
-504 -501 -5 0
503 8 -6 0
503 -8 6 0
-503 8 6 0
-503 -8 -6 0
-505 504 0
-505 4 0
-505 3 -6 0
-505 -3 6 0
505 -504 3 6 -4 0
505 -504 -3 -6 -4 0
507 504 -3 0
507 -504 3 0
-507 504 3 0
-507 -504 -3 0
506 6 -4 0
506 -6 4 0
-506 6 4 0
-506 -6 -4 0
-508 507 0
-508 2 0
-508 1 -4 0
-508 -1 4 0
508 -507 1 4 -2 0
508 -507 -1 -4 -2 0
510 507 -1 0
510 -507 1 0
-510 507 1 0
-510 -507 -1 0
509 4 -2 0
509 -4 2 0
-509 4 2 0
-509 -4 -2 0
-510 0
-507 0
-509 0
-504 0
-506 0
-501 0
-503 0
-498 0
-500 0
-495 0
-497 0
-492 0
-494 0
-489 0
-491 0
-486 0
-488 0
-483 0
-485 0
-480 0
-482 0
-477 0
-479 0
-474 0
-476 0
-471 0
-473 0
-468 0
-470 0
-465 0
-467 0
-462 0
-464 0
-459 0
-461 0
-456 0
-458 0
-453 0
-455 0
-450 0
-452 0
-447 0
-449 0
-444 0
-446 0
-441 0
-443 0
-438 0
-440 0
-435 0
-437 0
-432 0
-434 0
-429 0
-431 0
-426 0
-428 0
-423 0
-425 0
-420 0
-422 0
-417 0
-419 0
-414 0
-416 0
-411 0
-413 0
-408 0
-410 0
-405 0
-407 0
-402 0
-404 0
-399 0
-401 0
-396 0
-398 0
-393 0
-395 0
-390 0
-392 0
-387 0
-389 0
-384 0
-386 0
-381 0
-383 0
-378 0
-380 0
-375 0
-377 0
-372 0
-374 0
-369 0
-371 0
-366 0
-368 0
-363 0
-365 0
-360 0
-362 0
-357 0
-359 0
-354 0
-356 0
-351 0
-353 0
-348 0
-350 0
-345 0
-347 0
-342 0
-344 0
-339 0
-341 0
-336 0
-338 0
-333 0
-335 0
-330 0
-332 0
-327 0
-329 0
-324 0
-326 0
-321 0
-323 0
-318 0
-320 0
-315 0
-317 0
-312 0
-314 0
-309 0
-311 0
-306 0
-308 0
-303 0
-305 0
-300 0
-302 0
-297 0
-299 0
-294 0
-296 0
-291 0
-293 0
-288 0
-290 0
-285 0
-287 0
-282 0
-284 0
-279 0
-281 0
-276 0
-278 0
-273 0
-275 0
-270 0
-272 0
-267 0
-269 0
-264 0
-266 0
-261 0
-263 0
-258 0
-260 0
-255 0
-257 0
-252 0
-254 0
-249 0
-251 0
-246 0
-248 0
-243 0
-245 0
-240 0
-242 0
-237 0
-239 0
-234 0
-236 0
-231 0
-233 0
-228 0
-230 0
-225 0
-227 0
-222 0
-224 0
-219 0
-221 0
-216 0
-218 0
-213 0
-215 0
-206 0
-212 0
